NAME /Users/henri/Research/solvers/instances/idol-instances/robust/collection/spp_dkp_Lefebvre_et_al_2026/shortest_path_6_3/uncertainty_sets/discrete_knapsack
ROWS
 N  OBJ
 L  primal_lower
COLUMNS
    MARKER    'MARKER'                 'INTORG'
    y[0,1]     OBJ        0
    y[0,1]     primal_lower -4.78
    y[0,2]     OBJ        0
    y[0,2]     primal_lower -2.66
    y[0,3]     OBJ        0
    y[0,3]     primal_lower -1.36
    y[0,4]     OBJ        0
    y[0,4]     primal_lower -0.37
    y[0,5]     OBJ        0
    y[0,5]     primal_lower -2.15
    y[1,0]     OBJ        0
    y[1,0]     primal_lower -2.29
    y[1,2]     OBJ        0
    y[1,2]     primal_lower -0.23
    y[1,3]     OBJ        0
    y[1,3]     primal_lower -0.79
    y[2,0]     OBJ        0
    y[2,0]     primal_lower -0.56
    y[2,1]     OBJ        0
    y[2,1]     primal_lower -3.03
    y[2,3]     OBJ        0
    y[2,3]     primal_lower -4.14
    y[2,4]     OBJ        0
    y[2,4]     primal_lower -3.14
    y[2,5]     OBJ        0
    y[2,5]     primal_lower -4.79
    y[3,0]     OBJ        0
    y[3,0]     primal_lower -2.27
    y[3,1]     OBJ        0
    y[3,1]     primal_lower -2.99
    y[3,2]     OBJ        0
    y[3,2]     primal_lower -1.37
    y[3,5]     OBJ        0
    y[3,5]     primal_lower -4.72
    y[4,0]     OBJ        0
    y[4,0]     primal_lower -3.25
    y[4,2]     OBJ        0
    y[4,2]     primal_lower -2.13
    y[4,5]     OBJ        0
    y[4,5]     primal_lower -1.4
    y[5,0]     OBJ        0
    y[5,0]     primal_lower -2.46
    y[5,2]     OBJ        0
    y[5,2]     primal_lower -0.54
    y[5,3]     OBJ        0
    y[5,3]     primal_lower -1.1
    y[5,4]     OBJ        0
    y[5,4]     primal_lower -2.31
    u[0,1]     OBJ        0
    u[0,1]     primal_lower 95
    u[0,2]     OBJ        0
    u[0,2]     primal_lower 88
    u[0,3]     OBJ        0
    u[0,3]     primal_lower 12
    u[0,4]     OBJ        0
    u[0,4]     primal_lower 76
    u[0,5]     OBJ        0
    u[0,5]     primal_lower 14
    u[1,0]     OBJ        0
    u[1,0]     primal_lower 58
    u[1,2]     OBJ        0
    u[1,2]     primal_lower 23
    u[1,3]     OBJ        0
    u[1,3]     primal_lower 38
    u[2,0]     OBJ        0
    u[2,0]     primal_lower 32
    u[2,1]     OBJ        0
    u[2,1]     primal_lower 19
    u[2,3]     OBJ        0
    u[2,3]     primal_lower 93
    u[2,4]     OBJ        0
    u[2,4]     primal_lower 67
    u[2,5]     OBJ        0
    u[2,5]     primal_lower 57
    u[3,0]     OBJ        0
    u[3,0]     primal_lower 55
    u[3,1]     OBJ        0
    u[3,1]     primal_lower 67
    u[3,2]     OBJ        0
    u[3,2]     primal_lower 49
    u[3,5]     OBJ        0
    u[3,5]     primal_lower 41
    u[4,0]     OBJ        0
    u[4,0]     primal_lower 8
    u[4,2]     OBJ        0
    u[4,2]     primal_lower 58
    u[4,5]     OBJ        0
    u[4,5]     primal_lower 96
    u[5,0]     OBJ        0
    u[5,0]     primal_lower 3
    u[5,2]     OBJ        0
    u[5,2]     primal_lower 73
    u[5,3]     OBJ        0
    u[5,3]     primal_lower 91
    u[5,4]     OBJ        0
    u[5,4]     primal_lower 73
    MARKER    'MARKER'                 'INTEND'
RHS
    RHS       primal_lower 116
BOUNDS
 LI BND       y[0,1]     0
 UI BND       y[0,1]     1
 LI BND       y[0,2]     0
 UI BND       y[0,2]     1
 LI BND       y[0,3]     0
 UI BND       y[0,3]     1
 LI BND       y[0,4]     0
 UI BND       y[0,4]     1
 LI BND       y[0,5]     0
 UI BND       y[0,5]     1
 LI BND       y[1,0]     0
 UI BND       y[1,0]     1
 LI BND       y[1,2]     0
 UI BND       y[1,2]     1
 LI BND       y[1,3]     0
 UI BND       y[1,3]     1
 LI BND       y[2,0]     0
 UI BND       y[2,0]     1
 LI BND       y[2,1]     0
 UI BND       y[2,1]     1
 LI BND       y[2,3]     0
 UI BND       y[2,3]     1
 LI BND       y[2,4]     0
 UI BND       y[2,4]     1
 LI BND       y[2,5]     0
 UI BND       y[2,5]     1
 LI BND       y[3,0]     0
 UI BND       y[3,0]     1
 LI BND       y[3,1]     0
 UI BND       y[3,1]     1
 LI BND       y[3,2]     0
 UI BND       y[3,2]     1
 LI BND       y[3,5]     0
 UI BND       y[3,5]     1
 LI BND       y[4,0]     0
 UI BND       y[4,0]     1
 LI BND       y[4,2]     0
 UI BND       y[4,2]     1
 LI BND       y[4,5]     0
 UI BND       y[4,5]     1
 LI BND       y[5,0]     0
 UI BND       y[5,0]     1
 LI BND       y[5,2]     0
 UI BND       y[5,2]     1
 LI BND       y[5,3]     0
 UI BND       y[5,3]     1
 LI BND       y[5,4]     0
 UI BND       y[5,4]     1
 LI BND       u[0,1]     0
 UI BND       u[0,1]     1
 LI BND       u[0,2]     0
 UI BND       u[0,2]     1
 LI BND       u[0,3]     0
 UI BND       u[0,3]     1
 LI BND       u[0,4]     0
 UI BND       u[0,4]     1
 LI BND       u[0,5]     0
 UI BND       u[0,5]     1
 LI BND       u[1,0]     0
 UI BND       u[1,0]     1
 LI BND       u[1,2]     0
 UI BND       u[1,2]     1
 LI BND       u[1,3]     0
 UI BND       u[1,3]     1
 LI BND       u[2,0]     0
 UI BND       u[2,0]     1
 LI BND       u[2,1]     0
 UI BND       u[2,1]     1
 LI BND       u[2,3]     0
 UI BND       u[2,3]     1
 LI BND       u[2,4]     0
 UI BND       u[2,4]     1
 LI BND       u[2,5]     0
 UI BND       u[2,5]     1
 LI BND       u[3,0]     0
 UI BND       u[3,0]     1
 LI BND       u[3,1]     0
 UI BND       u[3,1]     1
 LI BND       u[3,2]     0
 UI BND       u[3,2]     1
 LI BND       u[3,5]     0
 UI BND       u[3,5]     1
 LI BND       u[4,0]     0
 UI BND       u[4,0]     1
 LI BND       u[4,2]     0
 UI BND       u[4,2]     1
 LI BND       u[4,5]     0
 UI BND       u[4,5]     1
 LI BND       u[5,0]     0
 UI BND       u[5,0]     1
 LI BND       u[5,2]     0
 UI BND       u[5,2]     1
 LI BND       u[5,3]     0
 UI BND       u[5,3]     1
 LI BND       u[5,4]     0
 UI BND       u[5,4]     1
ENDATA
